15
-1 31 98 41 46 71 16 61 39 69 4 19 4 44 2
50 -1 21 61 51 78 58 43 55 42 85 69 50 41 26
63 48 -1 48 4 70 84 77 19 2 79 81 70 68 12
30 72 80 -1 17 60 16 26 40 73 54 6 11 26 26
47 96 18 69 -1 64 6 21 29 91 78 44 42 56 45
90 77 24 98 80 -1 7 67 49 27 23 9 12 11 52
79 94 50 69 39 35 -1 26 89 15 67 27 21 93 47
12 80 21 22 26 14 50 -1 85 76 66 93 2 11 31
17 21 4 87 30 78 73 18 -1 14 26 62 73 35 49
95 72 91 32 36 40 45 42 66 -1 30 76 69 6 63
9 3 11 27 65 90 50 42 86 57 -1 86 69 55 99
8 51 4 85 90 66 5 44 56 78 36 -1 63 17 70
36 15 40 50 23 96 56 93 81 21 31 46 -1 33 46
19 17 53 60 28 3 61 38 9 83 63 68 95 -1 97
57 62 26 80 77 65 39 29 2 57 12 11 99 83 -1
